p cnf 83 275
-3 1 0
-3 -2 0
-1 2 3 0
-1 -4 -5 0
1 4 -5 0
-1 4 5 0
1 -4 5 0
-6 3 0
-6 -5 0
-3 5 6 0
-7 -6 0
-7 -3 0
6 3 7 0
10 -9 0
10 -9 0
9 -10 0
11 -8 0
11 -10 0
8 10 -11 0
-11 -12 -13 0
11 12 -13 0
-11 12 13 0
11 -12 13 0
-7 13 -14 0
7 -13 -14 0
-7 -13 14 0
7 13 14 0
17 3 0
17 16 0
-3 -16 -17 0
18 -10 0
18 -17 0
10 17 -18 0
-19 15 0
-19 -18 0
-15 18 19 0
-19 -17 -20 0
19 17 -20 0
-19 17 20 0
19 -17 20 0
21 14 0
21 -20 0
-14 20 -21 0
-16 12 -23 0
16 -12 -23 0
-16 -12 23 0
16 12 23 0
24 -22 0
24 -23 0
22 23 -24 0
25 -3 0
25 24 0
3 -24 -25 0
-26 -27 -28 0
26 27 -28 0
-26 27 28 0
26 -27 28 0
-22 -28 -29 0
22 28 -29 0
-22 28 29 0
22 -28 29 0
30 25 0
30 29 0
-25 -29 -30 0
-31 -28 0
-31 28 0
32 -30 0
32 -31 0
30 31 -32 0
21 -32 -33 0
-21 32 -33 0
21 32 33 0
-21 -32 33 0
-34 24 0
-34 5 0
-24 -5 34 0
-35 -27 0
-35 -27 0
27 35 0
34 35 -36 0
-34 -35 -36 0
34 -35 36 0
-34 35 36 0
36 18 -37 0
-36 -18 -37 0
36 -18 37 0
-36 18 37 0
-38 -33 0
-38 37 0
33 -37 38 0
-39 -17 0
-39 18 0
17 -18 39 0
40 11 0
40 -39 0
-11 39 -40 0
41 -19 0
41 -34 0
19 34 -41 0
4 22 -42 0
-4 -22 -42 0
4 -22 42 0
-4 22 42 0
-42 -9 -43 0
42 9 -43 0
-42 9 43 0
42 -9 43 0
-44 15 0
-44 25 0
-15 -25 44 0
45 -17 0
45 -44 0
17 44 -45 0
47 -1 0
47 46 0
1 -46 -47 0
-45 -47 -48 0
45 47 -48 0
-45 47 48 0
45 -47 48 0
-49 43 0
-49 -48 0
-43 48 49 0
50 25 0
50 -16 0
-25 16 -50 0
-51 49 0
-51 50 0
-49 -50 51 0
41 51 -52 0
-41 -51 -52 0
41 -51 52 0
-41 51 52 0
-53 40 0
-53 -52 0
-40 52 53 0
-8 17 -54 0
8 -17 -54 0
-8 -17 54 0
8 17 54 0
3 54 -55 0
-3 -54 -55 0
3 -54 55 0
-3 54 55 0
56 23 0
56 -23 0
4 -17 -57 0
-4 17 -57 0
4 17 57 0
-4 -17 57 0
-58 57 0
-58 2 0
-57 -2 58 0
56 -58 -59 0
-56 58 -59 0
56 58 59 0
-56 -58 59 0
-60 -55 0
-60 -59 0
55 59 60 0
-22 -1 -61 0
22 1 -61 0
-22 1 61 0
22 -1 61 0
63 -4 0
63 62 0
4 -62 -63 0
64 -26 0
64 -63 0
26 63 -64 0
66 22 0
66 22 0
-22 -66 0
-67 -65 0
-67 -66 0
65 66 67 0
-68 -9 0
-68 -54 0
9 54 68 0
-68 -69 0
68 -69 0
-69 6 -70 0
69 -6 -70 0
-69 -6 70 0
69 6 70 0
71 -3 0
71 -12 0
3 12 -71 0
-25 71 -72 0
25 -71 -72 0
-25 -71 72 0
25 71 72 0
-73 70 0
-73 -72 0
-70 72 73 0
74 -67 0
74 73 0
67 -73 -74 0
75 -64 0
75 -74 0
64 74 -75 0
-61 75 -76 0
61 -75 -76 0
-61 -75 76 0
61 75 76 0
-77 17 0
-77 -66 0
-17 66 77 0
-78 76 0
-78 -77 0
-76 77 78 0
-79 -15 0
-79 5 0
15 -5 79 0
78 79 -80 0
-78 -79 -80 0
78 -79 80 0
-78 79 80 0
81 -60 0
81 -80 0
60 80 -81 0
53 81 -82 0
-53 -81 -82 0
53 -81 82 0
-53 81 82 0
-83 38 0
-83 -82 0
-38 82 83 0
-60 -9 0
80 19 -53 -55 49 0
79 -34 -6 47 0
-28 81 0
29 70 -14 -49 -75 18 0
-37 60 -1 77 0
45 78 0
-17 -25 -47 72 -22 -77 0
49 45 6 0
-22 -3 -21 0
32 3 -62 59 0
-27 4 52 80 5 -22 0
59 -47 0
32 10 -22 50 0
48 62 60 0
59 -9 -47 -17 76 0
-81 64 -38 0
15 -74 18 -69 77 28 0
81 28 -79 0
37 -39 2 -78 0
-44 -62 29 -22 0
5 -10 8 36 12 0
-64 8 67 -13 0
-31 55 0
59 78 -12 82 0
-66 24 0
19 -79 -12 54 -40 0
-9 21 -25 0
14 49 75 0
50 -3 -38 -2 0
70 -33 0
-70 12 23 0
61 -14 71 -53 22 0
53 -40 34 35 -63 0
-77 23 -1 43 -14 -35 0
-38 67 21 16 -53 65 0
-45 41 37 15 82 0
53 -16 -11 0
-46 61 -25 69 -15 0
72 44 50 -20 0
52 31 -71 -27 -2 -15 0
-77 49 -78 -52 -28 0
-39 17 79 -20 -32 47 0
-45 7 75 -2 0
32 19 -6 0
11 31 -12 0
83 0
